celar_50_7_10_5_0.800000_1 100 52 286 36001
47 41 51 52 44 48 51 42 45 41 46 52 41 48 42 43 43 47 42 40 49 49 49 41 46 40 48 40 44 48 47 52 46 43 43 42 52 44 47 43 45 47 47 40 45 44 49 41 47 44 43 42 51 50 41 52 41 48 41 41 52 47 43 42 44 47 52 43 44 45 45 47 44 50 52 46 42 45 42 44 45 47 43 42 52 52 40 48 52 40 49 41 46 43 40 42 42 44 52 40
2 0 1 36001 39
1 16 0
3 17 0
4 18 0
5 19 0
6 21 0
7 22 0
8 23 0
9 24 0
10 25 0
11 27 0
12 28 0
13 29 0
14 30 0
15 31 0
16 32 0
18 33 0
19 34 0
20 35 0
21 0 0
22 36 0
23 1 0
23 37 0
24 2 0
24 38 0
25 40 0
26 4 0
27 5 0
28 6 0
29 7 0
30 8 0
31 9 0
32 10 0
36 11 0
37 12 0
39 13 0
40 15 0
43 16 0
45 17 0
46 19 0
2 2 3 36001 57
0 23 0
1 24 0
2 25 0
3 26 0
4 27 0
5 28 0
6 29 0
7 30 0
8 31 0
9 32 0
10 33 0
11 34 0
12 35 0
13 36 0
14 37 0
15 38 0
16 39 0
17 40 0
18 41 0
19 42 0
20 43 0
21 44 0
22 45 0
23 0 0
23 46 0
24 1 0
24 47 0
25 2 0
25 48 0
26 3 0
26 49 0
27 4 0
27 50 0
28 5 0
28 51 0
29 6 0
30 7 0
31 8 0
32 9 0
33 10 0
34 11 0
35 12 0
36 13 0
37 14 0
38 15 0
39 16 0
40 17 0
41 18 0
42 19 0
43 20 0
44 21 0
45 22 0
46 23 0
47 24 0
48 25 0
49 26 0
50 27 0
2 4 5 36001 45
0 23 0
2 24 0
3 25 0
4 26 0
6 27 0
7 29 0
8 30 0
9 31 0
10 33 0
11 34 0
12 35 0
13 36 0
14 37 0
16 38 0
17 39 0
19 41 0
20 0 0
20 42 0
21 1 0
21 43 0
22 2 0
22 44 0
23 4 0
23 46 0
24 5 0
24 47 0
25 6 0
26 7 0
27 8 0
28 9 0
29 10 0
30 12 0
31 13 0
32 14 0
33 15 0
34 16 0
35 17 0
36 18 0
37 19 0
38 20 0
39 21 0
40 22 0
41 24 0
42 25 0
43 26 0
2 6 7 36001 46
0 17 0
2 18 0
3 19 0
4 20 0
5 21 0
6 22 0
9 23 0
10 24 0
11 25 0
12 26 0
13 27 0
14 28 0
15 29 0
16 30 0
17 31 0
18 32 0
19 33 0
21 35 0
22 0 0
22 36 0
23 37 0
24 1 0
24 38 0
25 2 0
25 39 0
26 3 0
26 40 0
27 4 0
27 41 0
28 5 0
30 6 0
31 7 0
32 8 0
34 9 0
36 10 0
38 11 0
39 12 0
40 13 0
41 14 0
42 15 0
43 16 0
45 17 0
47 18 0
48 19 0
49 20 0
50 21 0
2 8 9 36001 39
2 18 0
3 19 0
4 20 0
5 21 0
6 22 0
8 25 0
10 26 0
11 27 0
12 29 0
13 30 0
14 31 0
15 32 0
17 33 0
18 34 0
19 35 0
20 36 0
21 0 0
21 37 0
22 1 0
23 2 0
23 38 0
24 3 0
24 39 0
25 4 0
25 40 0
26 5 0
27 6 0
28 7 0
29 8 0
31 9 0
33 10 0
34 11 0
35 13 0
36 15 0
38 16 0
41 18 0
42 19 0
43 20 0
44 21 0
2 10 11 36001 50
0 23 0
1 24 0
2 25 0
3 26 0
4 27 0
5 28 0
6 30 0
7 31 0
8 32 0
9 33 0
10 34 0
11 35 0
12 36 0
13 37 0
14 38 0
15 39 0
16 40 0
17 41 0
18 42 0
19 44 0
20 45 0
21 1 0
21 47 0
22 2 0
22 48 0
23 3 0
23 49 0
24 5 0
24 51 0
25 6 0
26 7 0
27 8 0
28 9 0
29 10 0
30 11 0
31 12 0
32 13 0
33 14 0
34 15 0
35 16 0
36 18 0
37 19 0
38 20 0
39 21 0
40 22 0
41 23 0
42 24 0
43 25 0
44 26 0
45 27 0
2 12 13 36001 40
0 22 0
2 24 0
3 25 0
4 26 0
5 27 0
6 28 0
8 29 0
9 31 0
11 32 0
12 34 0
13 35 0
14 37 0
15 39 0
16 40 0
17 41 0
18 1 0
18 43 0
19 2 0
19 44 0
20 3 0
20 45 0
21 5 0
21 47 0
23 7 0
24 8 0
25 9 0
26 10 0
27 11 0
28 12 0
29 13 0
30 15 0
31 16 0
32 18 0
33 19 0
34 20 0
35 22 0
37 23 0
38 24 0
39 25 0
40 26 0
2 14 15 36001 39
0 18 0
1 19 0
2 21 0
3 22 0
5 23 0
7 24 0
8 25 0
9 26 0
10 27 0
11 28 0
12 29 0
13 30 0
14 31 0
15 32 0
17 34 0
19 35 0
20 36 0
21 0 0
21 37 0
22 38 0
23 2 0
23 40 0
24 3 0
24 42 0
25 4 0
26 5 0
27 6 0
28 7 0
29 8 0
30 9 0
31 10 0
32 11 0
33 12 0
34 13 0
36 16 0
38 19 0
39 20 0
40 21 0
41 22 0
2 16 17 36001 45
0 21 0
1 22 0
2 23 0
3 25 0
6 26 0
7 28 0
8 29 0
9 30 0
10 32 0
11 33 0
13 34 0
14 35 0
15 36 0
16 37 0
17 39 0
18 40 0
19 0 0
19 41 0
20 1 0
20 43 0
21 2 0
21 44 0
22 3 0
22 45 0
23 4 0
23 46 0
24 5 0
25 6 0
26 7 0
27 8 0
28 9 0
29 10 0
30 11 0
31 12 0
32 13 0
33 14 0
34 15 0
35 16 0
36 17 0
37 18 0
38 19 0
39 21 0
40 22 0
41 23 0
42 25 0
2 18 19 36001 36
0 20 0
1 21 0
2 22 0
3 23 0
4 24 0
5 25 0
6 26 0
10 27 0
11 28 0
13 30 0
14 31 0
15 33 0
17 35 0
19 1 0
19 37 0
20 2 0
20 38 0
21 3 0
21 39 0
22 5 0
23 6 0
24 7 0
25 8 0
26 9 0
28 10 0
29 12 0
30 13 0
31 14 0
32 15 0
33 16 0
35 17 0
37 19 0
38 21 0
39 22 0
40 23 0
41 24 0
2 20 21 36001 50
0 22 0
1 23 0
2 25 0
4 26 0
5 27 0
6 28 0
7 29 0
8 30 0
9 31 0
10 32 0
11 33 0
12 34 0
13 35 0
14 36 0
15 37 0
16 38 0
17 39 0
18 40 0
19 41 0
20 42 0
21 43 0
22 0 0
22 44 0
23 2 0
23 46 0
24 3 0
24 47 0
25 4 0
25 48 0
26 5 0
27 6 0
28 7 0
30 8 0
31 9 0
32 10 0
33 11 0
34 13 0
35 14 0
36 15 0
37 16 0
38 17 0
39 18 0
40 19 0
41 20 0
42 21 0
43 22 0
44 23 0
45 24 0
46 25 0
48 26 0
2 22 23 36001 42
0 16 0
1 17 0
2 18 0
4 19 0
5 20 0
6 21 0
7 22 0
8 23 0
9 24 0
10 25 0
11 26 0
12 27 0
14 28 0
15 29 0
16 30 0
19 31 0
20 32 0
21 33 0
22 0 0
22 35 0
23 36 0
24 1 0
24 37 0
25 2 0
25 38 0
26 3 0
26 39 0
27 5 0
29 6 0
30 7 0
33 8 0
34 9 0
35 10 0
36 11 0
37 12 0
39 13 0
40 14 0
43 16 0
44 17 0
45 18 0
47 19 0
48 20 0
2 24 25 36001 42
0 19 0
1 20 0
2 21 0
3 22 0
4 24 0
6 25 0
7 26 0
8 27 0
10 28 0
12 29 0
13 30 0
15 31 0
16 32 0
18 33 0
19 34 0
20 35 0
21 0 0
21 36 0
22 1 0
22 37 0
23 2 0
24 38 0
25 3 0
25 39 0
26 4 0
27 7 0
28 8 0
29 9 0
31 10 0
32 11 0
33 12 0
34 13 0
35 14 0
36 15 0
37 16 0
39 17 0
40 18 0
41 20 0
42 21 0
43 22 0
44 23 0
45 24 0
2 26 27 36001 41
0 19 0
1 20 0
2 21 0
3 22 0
4 23 0
5 24 0
6 25 0
7 26 0
11 27 0
13 28 0
14 29 0
15 30 0
16 31 0
17 32 0
19 33 0
20 34 0
21 35 0
22 0 0
23 2 0
23 37 0
24 3 0
24 38 0
25 4 0
25 39 0
26 5 0
28 6 0
29 7 0
33 8 0
34 9 0
35 10 0
36 11 0
37 12 0
38 13 0
39 14 0
40 15 0
41 16 0
42 17 0
43 18 0
45 21 0
46 22 0
47 23 0
2 28 29 36001 45
1 24 0
2 25 0
3 27 0
4 28 0
5 29 0
6 30 0
7 31 0
8 32 0
9 33 0
10 34 0
11 35 0
12 36 0
13 37 0
14 38 0
15 39 0
16 40 0
17 41 0
19 42 0
20 0 0
20 43 0
21 2 0
21 45 0
22 3 0
22 46 0
23 4 0
24 5 0
24 47 0
25 7 0
26 8 0
27 9 0
28 11 0
29 12 0
30 13 0
31 15 0
32 17 0
33 18 0
34 19 0
35 20 0
36 21 0
37 22 0
39 23 0
40 24 0
41 25 0
42 26 0
43 27 0
2 30 31 36001 53
0 23 0
1 24 0
2 25 0
3 26 0
4 27 0
5 28 0
6 29 0
7 30 0
8 31 0
9 33 0
10 34 0
11 36 0
12 38 0
13 39 0
14 40 0
15 41 0
16 42 0
17 43 0
18 44 0
19 45 0
20 0 0
20 46 0
21 1 0
21 47 0
22 2 0
22 48 0
23 3 0
23 49 0
24 4 0
24 50 0
25 5 0
25 51 0
26 6 0
27 7 0
28 8 0
29 9 0
30 10 0
31 11 0
32 12 0
33 13 0
34 14 0
35 15 0
36 16 0
37 18 0
38 19 0
39 20 0
40 21 0
41 22 0
42 24 0
43 25 0
44 26 0
45 27 0
46 28 0
2 32 33 36001 42
0 18 0
1 19 0
2 20 0
3 21 0
4 22 0
5 23 0
6 24 0
7 26 0
9 28 0
10 29 0
11 30 0
12 31 0
13 32 0
14 33 0
15 35 0
16 36 0
19 37 0
20 38 0
21 1 0
21 40 0
22 2 0
23 41 0
24 3 0
24 42 0
25 4 0
26 5 0
27 7 0
28 8 0
29 9 0
30 10 0
31 11 0
32 12 0
33 13 0
35 14 0
37 15 0
39 16 0
40 17 0
41 18 0
42 19 0
43 20 0
44 22 0
45 23 0
2 34 35 36001 37
0 17 0
1 18 0
3 20 0
4 23 0
5 24 0
6 25 0
7 26 0
8 27 0
9 29 0
10 30 0
11 31 0
12 32 0
14 34 0
15 35 0
17 36 0
18 1 0
18 37 0
19 39 0
20 40 0
21 3 0
21 41 0
22 4 0
23 6 0
24 7 0
25 8 0
26 9 0
28 11 0
29 12 0
30 13 0
31 14 0
33 15 0
36 16 0
37 17 0
38 18 0
39 19 0
41 20 0
42 21 0
2 36 37 36001 50
0 19 0
1 20 0
2 21 0
3 22 0
4 23 0
5 24 0
6 25 0
7 26 0
8 27 0
11 28 0
12 29 0
13 30 0
14 31 0
15 32 0
16 33 0
17 34 0
18 35 0
19 36 0
22 37 0
23 38 0
24 0 0
24 39 0
25 1 0
25 40 0
26 2 0
26 41 0
27 3 0
27 42 0
28 43 0
29 4 0
30 5 0
31 6 0
32 7 0
33 8 0
34 9 0
35 10 0
36 11 0
37 12 0
38 13 0
39 14 0
41 15 0
42 16 0
43 17 0
45 18 0
46 19 0
47 20 0
48 21 0
49 22 0
50 23 0
51 24 0
2 38 39 36001 44
0 19 0
1 20 0
2 21 0
3 22 0
4 23 0
6 24 0
7 25 0
8 26 0
10 27 0
12 28 0
13 29 0
14 30 0
15 31 0
16 32 0
17 33 0
18 34 0
19 35 0
20 36 0
21 38 0
22 0 0
22 39 0
24 1 0
24 40 0
25 2 0
26 3 0
26 41 0
27 4 0
27 42 0
28 5 0
29 6 0
30 8 0
31 9 0
32 10 0
34 11 0
36 12 0
38 14 0
39 15 0
40 16 0
41 17 0
42 18 0
43 19 0
44 20 0
45 21 0
46 23 0
2 40 41 36001 46
0 19 0
1 20 0
2 21 0
3 22 0
4 23 0
5 24 0
6 25 0
8 26 0
9 27 0
10 28 0
11 29 0
12 30 0
13 31 0
14 33 0
15 35 0
16 37 0
17 38 0
18 39 0
19 40 0
20 0 0
20 41 0
21 1 0
21 42 0
22 2 0
22 43 0
23 3 0
23 44 0
24 4 0
24 45 0
25 46 0
27 6 0
28 7 0
29 8 0
30 9 0
31 10 0
32 11 0
33 12 0
34 14 0
36 17 0
37 18 0
39 19 0
40 20 0
41 21 0
42 22 0
43 23 0
44 24 0
2 42 43 36001 39
0 16 0
1 17 0
2 18 0
3 19 0
5 20 0
6 21 0
7 22 0
8 23 0
11 24 0
12 25 0
13 26 0
14 27 0
15 28 0
17 30 0
18 31 0
19 32 0
20 33 0
21 0 0
21 34 0
22 1 0
22 35 0
23 36 0
24 3 0
24 38 0
25 39 0
26 4 0
28 5 0
30 6 0
31 7 0
33 8 0
34 9 0
35 11 0
36 12 0
37 13 0
38 14 0
41 16 0
42 17 0
44 18 0
45 19 0
2 44 45 36001 42
0 20 0
1 21 0
2 22 0
4 23 0
5 24 0
6 26 0
7 27 0
8 28 0
10 29 0
11 30 0
12 31 0
13 33 0
14 34 0
15 36 0
16 37 0
17 38 0
19 39 0
20 0 0
20 40 0
21 1 0
22 2 0
22 41 0
23 3 0
24 4 0
24 42 0
25 43 0
26 5 0
27 6 0
28 7 0
29 8 0
30 9 0
31 10 0
32 11 0
34 12 0
35 13 0
36 16 0
38 19 0
39 20 0
40 21 0
41 22 0
43 23 0
44 24 0
2 46 47 36001 42
1 19 0
2 20 0
3 21 0
5 22 0
6 23 0
8 24 0
9 25 0
10 26 0
12 28 0
13 29 0
15 30 0
16 31 0
17 32 0
18 33 0
19 34 0
20 35 0
21 36 0
22 0 0
22 37 0
24 1 0
24 38 0
25 2 0
25 39 0
26 4 0
27 5 0
28 6 0
30 7 0
31 8 0
33 9 0
34 10 0
35 11 0
36 12 0
37 13 0
38 14 0
39 15 0
40 16 0
41 17 0
42 18 0
44 19 0
45 20 0
46 21 0
48 22 0
2 48 49 36001 45
0 17 0
1 19 0
2 20 0
3 21 0
4 22 0
5 23 0
6 24 0
8 25 0
9 26 0
10 27 0
11 28 0
12 29 0
13 30 0
14 31 0
15 32 0
16 33 0
17 34 0
18 35 0
19 36 0
20 37 0
21 38 0
22 0 0
22 39 0
23 1 0
23 40 0
24 3 0
24 42 0
25 4 0
25 43 0
27 5 0
28 6 0
30 7 0
31 8 0
32 9 0
35 10 0
36 11 0
37 12 0
38 13 0
39 14 0
40 15 0
41 16 0
43 17 0
44 19 0
45 20 0
46 21 0
2 50 51 36001 37
0 16 0
1 17 0
2 18 0
3 19 0
4 21 0
5 22 0
6 24 0
8 26 0
10 27 0
11 28 0
12 30 0
13 31 0
14 32 0
16 33 0
17 34 0
18 35 0
19 0 0
19 36 0
20 1 0
20 37 0
21 2 0
21 38 0
22 4 0
22 40 0
25 6 0
26 7 0
29 9 0
31 11 0
33 12 0
34 13 0
36 14 0
37 16 0
38 17 0
39 18 0
40 19 0
41 20 0
42 21 0
2 52 53 36001 55
0 22 0
1 23 0
2 24 0
3 25 0
4 26 0
5 27 0
6 28 0
7 29 0
8 30 0
9 31 0
10 32 0
11 33 0
12 34 0
13 35 0
14 36 0
15 37 0
16 38 0
17 39 0
18 40 0
19 41 0
21 43 0
22 0 0
22 44 0
23 1 0
23 45 0
24 2 0
24 46 0
25 3 0
25 47 0
26 4 0
26 48 0
27 5 0
27 49 0
28 6 0
29 7 0
30 8 0
31 9 0
32 10 0
33 11 0
34 12 0
35 13 0
36 14 0
37 15 0
38 16 0
39 17 0
40 18 0
41 19 0
43 20 0
44 21 0
45 22 0
46 23 0
47 24 0
48 25 0
49 26 0
50 27 0
2 54 55 36001 46
0 23 0
1 24 0
2 25 0
3 26 0
4 28 0
5 29 0
6 30 0
7 31 0
8 32 0
9 33 0
10 34 0
11 36 0
12 37 0
13 40 0
14 41 0
15 43 0
16 44 0
17 0 0
17 46 0
18 1 0
18 47 0
19 2 0
19 48 0
20 3 0
20 49 0
21 4 0
21 50 0
22 6 0
23 7 0
24 8 0
25 9 0
26 10 0
27 12 0
28 13 0
29 15 0
30 16 0
31 17 0
32 18 0
33 20 0
34 21 0
35 23 0
36 24 0
37 25 0
38 26 0
39 27 0
40 28 0
2 56 57 36001 41
0 22 0
1 23 0
2 24 0
3 25 0
4 26 0
5 27 0
6 28 0
8 30 0
9 33 0
10 34 0
11 35 0
12 36 0
13 37 0
14 38 0
15 39 0
17 40 0
18 41 0
19 0 0
19 42 0
20 2 0
20 44 0
21 3 0
21 45 0
22 5 0
22 47 0
23 6 0
24 9 0
25 10 0
26 12 0
27 13 0
29 14 0
30 16 0
31 17 0
32 18 0
33 19 0
34 20 0
35 22 0
36 23 0
38 24 0
39 25 0
40 26 0
2 58 59 36001 36
0 16 0
1 17 0
2 18 0
3 20 0
4 21 0
5 22 0
7 23 0
8 25 0
9 26 0
10 27 0
11 28 0
12 30 0
13 31 0
14 32 0
15 34 0
16 35 0
18 0 0
18 36 0
19 1 0
19 37 0
20 3 0
20 39 0
21 4 0
21 40 0
23 5 0
24 6 0
25 7 0
26 8 0
28 9 0
29 12 0
33 15 0
36 16 0
37 18 0
38 19 0
39 20 0
40 21 0
2 60 61 36001 53
0 20 0
1 21 0
2 22 0
3 23 0
4 24 0
5 25 0
6 26 0
7 27 0
8 28 0
9 29 0
10 30 0
11 31 0
12 32 0
13 33 0
14 34 0
15 35 0
16 36 0
17 37 0
18 38 0
19 39 0
20 40 0
21 41 0
23 42 0
24 0 0
24 43 0
26 1 0
26 44 0
27 2 0
27 45 0
28 3 0
28 46 0
29 4 0
30 5 0
31 6 0
32 7 0
33 8 0
34 9 0
35 10 0
36 11 0
37 12 0
38 13 0
40 14 0
41 15 0
42 16 0
43 17 0
44 18 0
45 19 0
46 20 0
47 21 0
48 22 0
49 23 0
50 24 0
51 25 0
2 62 63 36001 39
0 21 0
1 22 0
2 23 0
3 24 0
4 25 0
5 26 0
6 28 0
7 29 0
8 30 0
9 31 0
10 32 0
11 33 0
12 34 0
13 35 0
14 36 0
16 37 0
18 38 0
21 0 0
21 39 0
22 2 0
23 4 0
24 7 0
25 8 0
26 9 0
27 10 0
28 11 0
29 12 0
30 13 0
31 14 0
32 15 0
33 16 0
34 17 0
35 18 0
36 19 0
37 21 0
38 22 0
39 23 0
40 24 0
42 25 0
2 64 65 36001 42
1 22 0
2 24 0
3 25 0
4 26 0
5 27 0
6 28 0
8 29 0
9 30 0
10 32 0
11 33 0
13 34 0
14 36 0
15 37 0
16 38 0
17 39 0
18 41 0
19 0 0
19 42 0
20 2 0
20 44 0
21 3 0
22 4 0
22 45 0
23 7 0
24 8 0
25 9 0
26 10 0
27 11 0
28 12 0
29 13 0
30 14 0
31 15 0
32 16 0
34 17 0
35 18 0
36 19 0
37 20 0
38 21 0
40 22 0
41 24 0
42 25 0
43 26 0
2 66 67 36001 47
0 19 0
2 20 0
4 21 0
5 22 0
6 23 0
7 24 0
8 25 0
9 26 0
10 27 0
11 28 0
12 29 0
13 30 0
14 31 0
15 32 0
16 33 0
17 34 0
18 35 0
19 36 0
20 37 0
21 38 0
23 0 0
23 39 0
24 1 0
24 40 0
25 2 0
26 3 0
27 4 0
27 41 0
28 5 0
28 42 0
29 6 0
30 7 0
31 8 0
32 9 0
33 10 0
34 11 0
35 12 0
36 13 0
38 14 0
39 15 0
40 16 0
44 17 0
45 18 0
46 19 0
48 20 0
50 21 0
51 22 0
2 68 69 36001 41
0 22 0
2 23 0
3 24 0
4 25 0
5 26 0
6 28 0
7 30 0
8 31 0
10 32 0
11 33 0
12 34 0
13 35 0
15 36 0
16 37 0
18 38 0
19 39 0
20 0 0
20 40 0
21 1 0
21 41 0
22 3 0
22 43 0
23 4 0
23 44 0
24 6 0
25 7 0
26 8 0
27 9 0
28 10 0
29 11 0
30 12 0
31 13 0
32 14 0
34 15 0
35 16 0
36 18 0
37 19 0
38 20 0
39 22 0
42 23 0
43 24 0
2 70 71 36001 46
0 22 0
1 23 0
2 24 0
4 25 0
6 26 0
7 27 0
8 28 0
9 29 0
10 30 0
12 31 0
13 32 0
14 34 0
15 35 0
16 36 0
17 37 0
18 38 0
19 39 0
20 0 0
20 41 0
21 1 0
21 42 0
22 2 0
22 43 0
23 3 0
23 44 0
24 4 0
24 45 0
25 5 0
25 46 0
27 6 0
28 7 0
29 9 0
30 10 0
31 11 0
32 13 0
33 15 0
34 16 0
35 17 0
36 18 0
37 19 0
38 20 0
39 21 0
40 22 0
41 23 0
42 24 0
43 25 0
2 72 73 36001 47
0 23 0
1 24 0
2 25 0
3 26 0
4 27 0
5 29 0
6 31 0
7 32 0
8 33 0
9 34 0
10 35 0
11 36 0
12 37 0
13 38 0
14 39 0
16 41 0
17 42 0
18 43 0
20 1 0
20 45 0
21 2 0
21 46 0
22 3 0
22 47 0
23 4 0
23 48 0
24 5 0
24 49 0
25 8 0
26 9 0
27 10 0
28 11 0
29 12 0
30 13 0
31 14 0
32 16 0
33 17 0
34 18 0
35 19 0
36 20 0
37 21 0
38 23 0
39 24 0
40 25 0
41 26 0
42 27 0
43 28 0
2 74 75 36001 52
0 20 0
1 21 0
2 22 0
3 23 0
4 24 0
5 25 0
6 26 0
7 27 0
8 28 0
9 29 0
11 30 0
12 31 0
13 32 0
15 33 0
16 34 0
17 35 0
19 36 0
20 37 0
21 38 0
22 39 0
23 0 0
23 40 0
24 1 0
24 41 0
25 2 0
25 42 0
26 3 0
26 43 0
27 4 0
27 44 0
28 45 0
29 5 0
30 6 0
31 7 0
32 8 0
33 9 0
35 10 0
36 11 0
37 12 0
38 13 0
39 14 0
40 15 0
41 16 0
42 17 0
43 18 0
45 19 0
46 20 0
47 21 0
48 22 0
49 23 0
50 24 0
51 25 0
2 76 77 36001 43
0 20 0
1 21 0
2 22 0
3 24 0
4 26 0
5 27 0
8 28 0
9 29 0
11 30 0
12 31 0
13 32 0
15 34 0
16 35 0
17 37 0
18 0 0
18 39 0
19 1 0
19 40 0
20 2 0
20 41 0
21 42 0
22 3 0
22 43 0
23 4 0
23 44 0
24 5 0
25 6 0
26 7 0
27 8 0
28 9 0
29 11 0
30 12 0
31 13 0
32 14 0
33 15 0
34 17 0
35 18 0
36 20 0
37 21 0
38 22 0
39 23 0
40 24 0
41 25 0
2 78 79 36001 40
0 19 0
1 20 0
2 21 0
3 22 0
4 23 0
5 24 0
6 27 0
7 31 0
8 32 0
9 33 0
10 34 0
12 35 0
13 36 0
14 37 0
16 0 0
16 38 0
17 1 0
17 39 0
18 2 0
18 40 0
19 41 0
20 43 0
21 5 0
23 6 0
24 7 0
25 8 0
26 9 0
27 10 0
29 11 0
31 12 0
32 13 0
33 14 0
34 15 0
35 17 0
36 18 0
37 19 0
38 20 0
39 21 0
40 22 0
41 23 0
2 80 81 36001 45
0 18 0
1 19 0
2 20 0
3 21 0
4 22 0
5 24 0
6 25 0
7 27 0
8 28 0
9 29 0
10 30 0
11 31 0
12 32 0
13 33 0
14 34 0
15 35 0
16 37 0
17 38 0
18 39 0
19 40 0
20 42 0
21 1 0
21 43 0
22 44 0
23 2 0
23 45 0
24 3 0
24 46 0
25 5 0
26 6 0
27 7 0
29 8 0
30 9 0
31 10 0
32 11 0
35 13 0
36 14 0
37 15 0
38 16 0
39 18 0
40 19 0
41 20 0
42 21 0
43 22 0
44 23 0
2 82 83 36001 38
0 18 0
1 19 0
2 20 0
4 22 0
5 23 0
6 24 0
7 25 0
9 26 0
10 27 0
11 28 0
12 29 0
14 32 0
15 34 0
16 35 0
18 36 0
19 0 0
20 1 0
20 37 0
21 2 0
21 38 0
22 3 0
22 39 0
23 40 0
24 41 0
26 4 0
27 6 0
28 7 0
29 8 0
30 10 0
32 13 0
34 14 0
35 15 0
36 16 0
37 18 0
38 19 0
39 20 0
41 21 0
42 22 0
2 84 85 36001 58
0 23 0
1 24 0
2 25 0
3 26 0
4 27 0
5 28 0
6 29 0
7 30 0
8 31 0
9 32 0
10 33 0
11 34 0
12 35 0
13 36 0
14 37 0
15 38 0
16 39 0
17 40 0
18 41 0
19 42 0
20 43 0
21 44 0
22 45 0
23 0 0
23 46 0
24 1 0
24 47 0
25 2 0
25 48 0
26 3 0
26 49 0
27 4 0
27 50 0
28 5 0
28 51 0
29 6 0
30 7 0
31 8 0
32 9 0
33 10 0
34 11 0
35 12 0
36 13 0
37 14 0
38 15 0
39 16 0
40 17 0
41 18 0
42 19 0
43 20 0
44 21 0
45 22 0
46 23 0
47 24 0
48 25 0
49 26 0
50 27 0
51 28 0
2 86 87 36001 40
0 21 0
1 22 0
2 23 0
3 24 0
4 26 0
5 27 0
6 28 0
7 29 0
8 31 0
9 32 0
10 34 0
11 35 0
12 36 0
13 38 0
14 41 0
15 42 0
16 0 0
16 43 0
17 1 0
18 2 0
18 44 0
19 3 0
19 45 0
20 7 0
21 8 0
22 9 0
23 10 0
24 11 0
25 12 0
26 13 0
27 15 0
28 16 0
29 17 0
30 19 0
32 20 0
34 21 0
35 22 0
36 23 0
38 24 0
39 25 0
2 88 89 36001 43
0 21 0
2 22 0
3 23 0
6 24 0
9 25 0
10 26 0
13 27 0
14 28 0
15 29 0
16 30 0
19 31 0
20 32 0
21 33 0
22 34 0
23 0 0
23 35 0
24 1 0
24 36 0
25 2 0
25 37 0
26 3 0
26 38 0
27 4 0
27 39 0
28 5 0
29 6 0
30 7 0
31 8 0
32 9 0
33 10 0
34 11 0
35 12 0
37 13 0
38 14 0
39 15 0
40 16 0
41 17 0
42 18 0
43 19 0
45 20 0
46 21 0
48 22 0
49 23 0
2 90 91 36001 44
0 18 0
1 19 0
2 20 0
3 21 0
4 22 0
5 23 0
6 24 0
8 25 0
9 26 0
11 27 0
12 28 0
13 29 0
15 31 0
16 32 0
17 33 0
19 34 0
20 35 0
22 0 0
23 1 0
23 36 0
24 37 0
25 3 0
25 39 0
26 4 0
26 40 0
27 5 0
28 6 0
29 7 0
31 8 0
32 9 0
33 10 0
34 11 0
35 12 0
37 13 0
38 14 0
39 15 0
41 16 0
42 17 0
43 18 0
44 19 0
45 20 0
46 21 0
47 22 0
48 23 0
2 92 93 36001 42
0 21 0
1 22 0
2 23 0
3 24 0
4 25 0
5 26 0
7 27 0
10 28 0
11 29 0
12 30 0
13 31 0
14 32 0
15 33 0
16 34 0
18 35 0
19 36 0
20 37 0
21 0 0
21 38 0
22 1 0
22 39 0
23 40 0
25 3 0
25 42 0
26 4 0
27 7 0
28 8 0
29 9 0
30 10 0
31 11 0
32 12 0
33 13 0
35 14 0
36 15 0
37 16 0
38 17 0
39 18 0
40 19 0
42 20 0
43 21 0
44 22 0
45 24 0
2 94 95 36001 33
0 18 0
1 19 0
4 21 0
5 27 0
6 28 0
7 29 0
9 31 0
10 33 0
11 34 0
12 35 0
13 36 0
15 0 0
15 37 0
16 1 0
16 38 0
17 3 0
18 4 0
18 40 0
19 5 0
19 41 0
22 6 0
23 8 0
24 9 0
25 10 0
26 11 0
27 12 0
31 14 0
32 15 0
33 16 0
34 17 0
35 18 0
36 19 0
37 20 0
2 96 97 36001 38
2 20 0
3 21 0
4 22 0
5 24 0
6 25 0
7 26 0
8 27 0
9 28 0
10 29 0
11 30 0
12 31 0
13 32 0
14 33 0
15 34 0
17 35 0
18 37 0
19 0 0
19 38 0
20 3 0
20 41 0
21 4 0
21 42 0
22 5 0
22 43 0
24 7 0
26 9 0
27 10 0
28 11 0
29 12 0
30 13 0
32 14 0
33 15 0
34 16 0
35 17 0
36 18 0
39 19 0
40 20 0
41 21 0
2 98 99 36001 44
0 19 0
2 20 0
3 21 0
5 22 0
6 23 0
8 24 0
9 25 0
11 26 0
14 27 0
16 28 0
17 29 0
18 30 0
19 31 0
20 32 0
21 33 0
22 34 0
23 35 0
24 0 0
25 1 0
25 36 0
26 37 0
27 2 0
27 38 0
28 3 0
28 39 0
29 4 0
30 5 0
31 6 0
32 7 0
33 8 0
34 9 0
37 10 0
38 11 0
39 12 0
40 13 0
41 14 0
42 15 0
43 16 0
44 17 0
45 18 0
46 19 0
48 20 0
49 21 0
51 22 0
2 4 92 36001 0
2 4 40 36001 0
2 4 74 36001 0
2 4 24 36001 0
2 6 70 36001 0
2 6 96 36001 0
2 6 10 36001 0
2 8 74 36001 0
2 8 96 36001 0
2 10 90 36001 0
2 10 60 36001 0
2 10 64 36001 0
2 12 96 36001 0
2 14 38 36001 0
2 14 54 36001 0
2 14 96 36001 0
2 16 34 36001 0
2 16 70 36001 0
2 16 52 36001 0
2 18 76 36001 0
2 20 44 36001 0
2 20 36 36001 0
2 22 26 36001 0
2 22 70 36001 0
2 24 98 36001 0
2 24 66 36001 0
2 24 50 36001 0
2 26 32 36001 0
2 28 38 36001 0
2 28 52 36001 0
2 30 80 36001 0
2 32 36 36001 0
2 36 44 36001 0
2 36 96 36001 0
2 38 54 36001 0
2 38 70 36001 0
2 38 84 36001 0
2 40 94 36001 0
2 40 62 36001 0
2 46 60 36001 0
2 46 96 36001 0
2 48 56 36001 0
2 48 88 36001 0
2 50 62 36001 0
2 56 82 36001 0
2 56 72 36001 0
2 58 84 36001 0
2 60 74 36001 0
2 68 80 36001 0
2 86 96 36001 0
2 4 93 36001 0
2 4 41 36001 0
2 4 75 36001 0
2 4 25 36001 0
2 6 71 36001 0
2 6 97 36001 0
2 6 11 36001 0
2 8 75 36001 0
2 8 97 36001 0
2 10 91 36001 0
2 10 61 36001 0
2 10 65 36001 0
2 12 97 36001 0
2 14 39 36001 0
2 14 55 36001 0
2 14 97 36001 0
2 16 35 36001 0
2 16 71 36001 0
2 16 53 36001 0
2 18 77 36001 0
2 20 45 36001 0
2 20 37 36001 0
2 22 27 36001 0
2 22 71 36001 0
2 24 99 36001 0
2 24 67 36001 0
2 24 51 36001 0
2 26 33 36001 0
2 28 39 36001 0
2 28 53 36001 0
2 30 81 36001 0
2 32 37 36001 0
2 36 45 36001 0
2 36 97 36001 0
2 38 55 36001 0
2 38 71 36001 0
2 38 85 36001 0
2 40 95 36001 0
2 40 63 36001 0
2 46 61 36001 0
2 46 97 36001 0
2 48 57 36001 0
2 48 89 36001 0
2 50 63 36001 0
2 56 83 36001 0
2 56 73 36001 0
2 58 85 36001 0
2 60 75 36001 0
2 68 81 36001 0
2 86 97 36001 0
2 5 92 36001 0
2 5 40 36001 0
2 5 74 36001 0
2 5 24 36001 0
2 7 70 36001 0
2 7 96 36001 0
2 7 10 36001 0
2 9 74 36001 0
2 9 96 36001 0
2 11 90 36001 0
2 11 60 36001 0
2 11 64 36001 0
2 13 96 36001 0
2 15 38 36001 0
2 15 54 36001 0
2 15 96 36001 0
2 17 34 36001 0
2 17 70 36001 0
2 17 52 36001 0
2 19 76 36001 0
2 21 44 36001 0
2 21 36 36001 0
2 23 26 36001 0
2 23 70 36001 0
2 25 98 36001 0
2 25 66 36001 0
2 25 50 36001 0
2 27 32 36001 0
2 29 38 36001 0
2 29 52 36001 0
2 31 80 36001 0
2 33 36 36001 0
2 37 44 36001 0
2 37 96 36001 0
2 39 54 36001 0
2 39 70 36001 0
2 39 84 36001 0
2 41 94 36001 0
2 41 62 36001 0
2 47 60 36001 0
2 47 96 36001 0
2 49 56 36001 0
2 49 88 36001 0
2 51 62 36001 0
2 57 82 36001 0
2 57 72 36001 0
2 59 84 36001 0
2 61 74 36001 0
2 69 80 36001 0
2 87 96 36001 0
2 5 93 36001 0
2 5 41 36001 0
2 5 75 36001 0
2 5 25 36001 0
2 7 71 36001 0
2 7 97 36001 0
2 7 11 36001 0
2 9 75 36001 0
2 9 97 36001 0
2 11 91 36001 0
2 11 61 36001 0
2 11 65 36001 0
2 13 97 36001 0
2 15 39 36001 0
2 15 55 36001 0
2 15 97 36001 0
2 17 35 36001 0
2 17 71 36001 0
2 17 53 36001 0
2 19 77 36001 0
2 21 45 36001 0
2 21 37 36001 0
2 23 27 36001 0
2 23 71 36001 0
2 25 99 36001 0
2 25 67 36001 0
2 25 51 36001 0
2 27 33 36001 0
2 29 39 36001 0
2 29 53 36001 0
2 31 81 36001 0
2 33 37 36001 0
2 37 45 36001 0
2 37 97 36001 0
2 39 55 36001 0
2 39 71 36001 0
2 39 85 36001 0
2 41 95 36001 0
2 41 63 36001 0
2 47 61 36001 0
2 47 97 36001 0
2 49 57 36001 0
2 49 89 36001 0
2 51 63 36001 0
2 57 83 36001 0
2 57 73 36001 0
2 59 85 36001 0
2 61 75 36001 0
2 69 81 36001 0
2 87 97 36001 0
2 0 73 1000 45
0 0 0
1 1 0
2 2 0
3 3 0
4 4 0
5 5 0
6 7 0
7 8 0
8 9 0
9 10 0
10 11 0
11 13 0
12 14 0
13 15 0
14 16 0
15 17 0
16 18 0
17 19 0
18 20 0
19 21 0
20 22 0
21 23 0
22 24 0
23 25 0
24 26 0
25 28 0
26 29 0
27 30 0
28 31 0
29 32 0
30 33 0
31 34 0
32 35 0
33 36 0
34 37 0
35 38 0
36 39 0
38 40 0
39 41 0
40 43 0
42 44 0
43 45 0
44 46 0
45 47 0
46 49 0
2 2 51 1000 41
0 0 0
1 1 0
2 2 0
3 3 0
4 4 0
5 5 0
8 6 0
9 7 0
11 8 0
13 9 0
15 10 0
16 11 0
18 12 0
19 13 0
21 14 0
22 15 0
23 16 0
24 17 0
25 18 0
26 19 0
27 20 0
28 21 0
29 22 0
30 23 0
31 24 0
32 25 0
34 26 0
36 27 0
37 28 0
38 29 0
39 30 0
40 31 0
41 32 0
43 33 0
44 34 0
45 35 0
46 36 0
47 37 0
48 38 0
49 39 0
50 40 0
2 4 19 1000 36
1 0 0
2 1 0
3 2 0
4 3 0
5 4 0
6 5 0
7 7 0
8 8 0
9 9 0
10 10 0
11 11 0
12 12 0
13 13 0
14 14 0
15 15 0
16 16 0
18 17 0
20 19 0
21 20 0
22 21 0
23 23 0
24 24 0
25 25 0
26 26 0
30 28 0
32 29 0
33 30 0
34 31 0
35 32 0
36 33 0
38 34 0
39 35 0
40 36 0
41 37 0
42 38 0
43 39 0
2 4 83 1000 36
0 0 0
1 1 0
2 2 0
3 3 0
7 5 0
8 6 0
9 7 0
10 9 0
11 10 0
12 11 0
13 12 0
15 13 0
17 14 0
18 15 0
19 17 0
20 18 0
21 19 0
22 20 0
23 21 0
24 22 0
25 23 0
26 24 0
27 25 0
29 26 0
30 28 0
31 29 0
32 30 0
33 31 0
35 32 0
36 33 0
37 34 0
38 35 0
40 36 0
41 38 0
42 39 0
43 40 0
2 4 21 1000 42
0 0 0
1 1 0
2 2 0
3 3 0
4 4 0
5 5 0
6 6 0
8 8 0
9 9 0
10 11 0
11 12 0
12 13 0
13 14 0
14 15 0
15 16 0
16 17 0
17 18 0
18 19 0
19 21 0
20 22 0
21 23 0
22 24 0
24 26 0
25 27 0
26 28 0
27 29 0
28 30 0
29 31 0
30 33 0
31 34 0
32 35 0
33 36 0
34 37 0
35 38 0
36 39 0
37 40 0
38 41 0
39 42 0
40 43 0
41 46 0
42 47 0
43 48 0
2 10 47 1000 39
0 0 0
2 1 0
3 2 0
4 3 0
5 4 0
6 6 0
8 7 0
9 8 0
11 9 0
12 10 0
13 11 0
14 12 0
15 13 0
16 14 0
17 15 0
18 16 0
19 17 0
20 18 0
21 19 0
22 20 0
23 21 0
24 22 0
25 23 0
27 24 0
28 25 0
29 26 0
30 27 0
32 28 0
33 29 0
35 30 0
36 32 0
37 33 0
38 34 0
39 35 0
40 36 0
41 37 0
43 38 0
44 39 0
45 40 0
2 16 43 1000 33
0 0 0
1 1 0
3 3 0
5 4 0
8 6 0
9 7 0
10 8 0
11 9 0
12 10 0
13 11 0
14 12 0
15 13 0
16 14 0
18 15 0
19 16 0
21 18 0
22 19 0
24 20 0
25 21 0
26 22 0
27 23 0
30 24 0
31 25 0
32 27 0
33 28 0
35 29 0
36 30 0
37 31 0
38 32 0
39 34 0
40 35 0
41 36 0
42 38 0
2 16 55 1000 43
0 0 0
1 1 0
2 2 0
3 4 0
4 5 0
5 6 0
6 7 0
7 9 0
8 10 0
9 11 0
10 13 0
11 14 0
12 15 0
13 16 0
14 17 0
15 18 0
16 19 0
17 21 0
18 22 0
19 23 0
20 25 0
21 26 0
22 27 0
23 28 0
24 29 0
25 30 0
26 31 0
27 32 0
28 33 0
29 34 0
30 35 0
31 36 0
32 38 0
33 39 0
34 40 0
35 41 0
36 42 0
37 43 0
38 44 0
39 46 0
40 47 0
41 48 0
42 50 0
2 20 61 1000 45
1 0 0
2 1 0
3 2 0
4 3 0
5 4 0
6 5 0
7 6 0
8 7 0
9 8 0
10 9 0
11 10 0
12 11 0
13 12 0
14 13 0
16 14 0
17 15 0
18 16 0
19 17 0
20 18 0
21 19 0
22 20 0
23 22 0
24 23 0
25 24 0
26 25 0
27 26 0
28 27 0
29 28 0
30 29 0
31 30 0
32 31 0
33 32 0
34 34 0
35 35 0
36 36 0
37 37 0
38 38 0
39 39 0
40 40 0
41 41 0
43 42 0
44 43 0
46 44 0
47 45 0
48 46 0
2 22 37 1000 42
1 0 0
2 1 0
3 2 0
4 3 0
6 4 0
7 5 0
8 6 0
9 7 0
10 8 0
11 9 0
12 10 0
13 11 0
14 12 0
15 13 0
16 14 0
18 15 0
19 16 0
20 17 0
22 19 0
23 20 0
24 21 0
25 22 0
26 23 0
27 25 0
28 26 0
29 27 0
32 28 0
33 29 0
34 30 0
35 31 0
36 32 0
37 33 0
38 34 0
39 35 0
40 36 0
42 37 0
43 38 0
44 39 0
45 40 0
46 41 0
47 42 0
48 43 0
2 22 25 1000 37
0 0 0
1 1 0
2 2 0
4 3 0
5 4 0
6 5 0
7 6 0
8 7 0
9 8 0
10 9 0
12 10 0
13 11 0
15 12 0
16 13 0
17 14 0
18 15 0
19 16 0
21 17 0
22 19 0
23 20 0
24 21 0
25 22 0
26 23 0
28 25 0
30 26 0
31 27 0
33 28 0
35 29 0
36 30 0
38 31 0
39 32 0
41 33 0
42 35 0
43 36 0
44 37 0
46 38 0
47 39 0
2 22 85 1000 49
0 0 0
1 1 0
2 2 0
3 3 0
4 4 0
5 5 0
6 6 0
7 7 0
8 8 0
9 9 0
10 10 0
11 11 0
12 12 0
13 13 0
14 14 0
15 15 0
16 16 0
17 17 0
18 18 0
19 19 0
20 20 0
21 21 0
22 23 0
23 24 0
24 25 0
25 26 0
26 27 0
27 29 0
28 30 0
29 31 0
30 32 0
31 33 0
32 34 0
33 35 0
34 36 0
35 37 0
36 38 0
37 39 0
38 40 0
39 41 0
40 42 0
41 43 0
42 45 0
43 46 0
44 47 0
45 48 0
46 49 0
47 50 0
48 51 0
2 24 29 1000 42
0 0 0
1 1 0
2 2 0
3 3 0
4 5 0
5 6 0
6 7 0
7 9 0
8 10 0
9 11 0
10 12 0
11 13 0
12 14 0
13 15 0
14 16 0
15 17 0
16 18 0
17 19 0
18 20 0
19 21 0
20 22 0
22 23 0
23 24 0
24 25 0
25 26 0
26 27 0
27 30 0
28 31 0
29 32 0
30 33 0
31 34 0
32 35 0
33 37 0
34 38 0
35 39 0
36 40 0
38 41 0
40 42 0
41 44 0
42 45 0
43 46 0
45 47 0
2 24 71 1000 41
0 0 0
1 1 0
2 2 0
3 3 0
4 5 0
6 6 0
7 8 0
8 9 0
9 10 0
10 11 0
11 12 0
12 13 0
13 14 0
14 15 0
15 16 0
16 17 0
17 18 0
18 19 0
19 20 0
20 21 0
21 22 0
22 23 0
23 24 0
25 25 0
27 28 0
28 29 0
29 30 0
31 31 0
33 33 0
34 34 0
35 35 0
36 36 0
37 37 0
38 38 0
39 39 0
40 40 0
41 42 0
42 43 0
43 44 0
44 45 0
45 46 0
2 26 97 1000 41
0 0 0
1 2 0
2 3 0
3 4 0
4 5 0
6 6 0
8 7 0
9 8 0
11 9 0
12 10 0
13 11 0
14 12 0
15 13 0
17 14 0
18 15 0
19 16 0
20 17 0
21 18 0
24 19 0
25 20 0
26 21 0
27 22 0
28 23 0
29 24 0
30 25 0
31 26 0
32 27 0
33 28 0
34 29 0
35 30 0
36 31 0
37 32 0
38 33 0
39 34 0
41 35 0
42 36 0
43 37 0
44 39 0
45 41 0
46 42 0
47 43 0
2 30 75 1000 41
0 0 0
1 1 0
2 2 0
3 3 0
4 4 0
6 5 0
7 6 0
8 7 0
9 9 0
11 11 0
12 13 0
13 14 0
14 15 0
15 16 0
16 17 0
17 18 0
19 19 0
20 20 0
21 21 0
22 22 0
23 23 0
24 24 0
25 25 0
26 26 0
27 27 0
28 28 0
29 29 0
31 30 0
32 31 0
33 32 0
35 33 0
36 34 0
38 36 0
39 37 0
40 38 0
41 39 0
42 41 0
43 42 0
44 43 0
45 44 0
46 45 0
2 62 79 1000 36
0 0 0
1 1 0
2 2 0
5 4 0
7 6 0
8 7 0
9 8 0
10 9 0
11 10 0
14 12 0
15 13 0
16 14 0
17 15 0
18 16 0
19 17 0
20 18 0
21 19 0
22 21 0
23 24 0
24 27 0
25 28 0
26 29 0
27 30 0
28 31 0
29 32 0
30 33 0
32 34 0
34 35 0
35 36 0
36 37 0
37 38 0
38 39 0
39 40 0
40 41 0
41 42 0
42 43 0
2 88 91 1000 41
0 0 0
1 1 0
3 2 0
4 3 0
5 4 0
6 5 0
7 6 0
8 7 0
10 8 0
11 9 0
12 10 0
13 11 0
14 12 0
16 13 0
17 14 0
18 15 0
21 16 0
22 17 0
23 18 0
24 19 0
25 20 0
26 21 0
27 22 0
28 23 0
29 24 0
31 25 0
32 26 0
34 27 0
35 28 0
36 29 0
38 30 0
39 31 0
40 32 0
41 33 0
43 34 0
44 35 0
47 36 0
48 37 0
49 38 0
50 39 0
51 40 0
2 1 72 1000 36
0 0 0
1 2 0
2 3 0
3 4 0
4 5 0
6 6 0
7 7 0
8 8 0
9 9 0
10 10 0
11 14 0
12 15 0
13 16 0
14 17 0
15 18 0
16 20 0
17 22 0
18 23 0
19 24 0
22 25 0
23 26 0
24 27 0
25 28 0
26 29 0
27 30 0
28 31 0
30 32 0
31 33 0
32 34 0
33 36 0
34 37 0
36 39 0
37 40 0
38 41 0
39 42 0
40 43 0
2 3 50 1000 43
0 0 0
1 1 0
2 2 0
3 3 0
5 4 0
6 5 0
8 6 0
10 7 0
11 8 0
12 9 0
13 10 0
14 11 0
16 12 0
17 13 0
18 14 0
19 15 0
20 16 0
21 17 0
22 18 0
23 19 0
24 20 0
25 21 0
27 22 0
29 23 0
30 24 0
31 25 0
32 26 0
33 27 0
35 28 0
36 29 0
37 30 0
39 31 0
40 32 0
41 33 0
42 34 0
43 35 0
44 36 0
46 37 0
47 38 0
48 39 0
49 40 0
50 41 0
51 42 0
2 5 18 1000 40
1 0 0
2 1 0
3 2 0
4 3 0
5 4 0
6 5 0
7 6 0
8 7 0
9 8 0
10 9 0
11 10 0
12 11 0
13 12 0
15 13 0
16 14 0
18 15 0
19 16 0
21 17 0
23 18 0
24 19 0
25 20 0
26 21 0
27 22 0
28 23 0
29 24 0
30 25 0
31 26 0
32 27 0
33 28 0
35 29 0
36 30 0
37 31 0
38 33 0
39 34 0
41 36 0
42 37 0
44 38 0
45 39 0
46 40 0
47 41 0
2 5 82 1000 39
0 0 0
1 1 0
2 2 0
3 3 0
5 4 0
6 5 0
7 6 0
8 7 0
9 8 0
10 9 0
11 10 0
12 11 0
13 12 0
16 13 0
17 14 0
19 15 0
20 16 0
21 17 0
22 18 0
23 19 0
24 21 0
25 22 0
26 23 0
27 25 0
28 26 0
30 27 0
31 28 0
32 29 0
34 30 0
37 31 0
38 33 0
39 34 0
40 36 0
42 37 0
43 38 0
44 39 0
45 40 0
46 41 0
47 42 0
2 5 20 1000 46
0 0 0
1 1 0
3 2 0
4 3 0
5 4 0
6 5 0
7 6 0
8 7 0
9 8 0
10 9 0
11 10 0
12 11 0
13 12 0
14 13 0
15 14 0
16 15 0
17 16 0
18 17 0
19 18 0
20 19 0
21 20 0
22 21 0
23 22 0
24 23 0
25 24 0
26 25 0
27 27 0
28 28 0
29 29 0
30 30 0
31 31 0
32 32 0
33 33 0
35 34 0
36 35 0
37 36 0
38 38 0
39 39 0
40 41 0
41 42 0
42 43 0
43 44 0
44 45 0
45 46 0
46 47 0
47 48 0
2 11 46 1000 49
0 0 0
1 1 0
2 2 0
3 3 0
4 4 0
5 5 0
6 6 0
7 7 0
8 8 0
9 9 0
10 10 0
12 11 0
13 12 0
14 13 0
15 14 0
16 15 0
17 16 0
18 17 0
19 18 0
20 19 0
21 20 0
22 21 0
23 22 0
24 23 0
25 24 0
26 25 0
28 26 0
29 27 0
30 28 0
31 29 0
32 30 0
33 31 0
34 32 0
35 33 0
36 34 0
37 35 0
38 36 0
39 37 0
40 38 0
41 39 0
42 40 0
44 41 0
45 42 0
46 43 0
47 44 0
48 45 0
49 46 0
50 47 0
51 48 0
2 17 42 1000 43
0 0 0
2 2 0
3 3 0
4 4 0
5 5 0
6 6 0
7 7 0
8 8 0
9 9 0
10 10 0
11 11 0
12 12 0
13 14 0
14 15 0
15 16 0
17 17 0
18 18 0
19 19 0
20 20 0
21 21 0
22 22 0
23 23 0
25 24 0
26 27 0
27 28 0
28 29 0
29 30 0
30 31 0
31 32 0
32 33 0
33 34 0
34 35 0
35 36 0
36 37 0
37 38 0
38 39 0
39 40 0
41 41 0
42 42 0
43 43 0
44 44 0
45 45 0
46 46 0
2 17 54 1000 37
0 0 0
1 2 0
2 3 0
4 4 0
5 5 0
6 6 0
7 7 0
8 8 0
9 9 0
10 10 0
12 11 0
15 13 0
16 14 0
18 15 0
19 16 0
21 17 0
22 18 0
23 19 0
24 20 0
25 21 0
26 23 0
27 24 0
28 25 0
29 26 0
31 27 0
32 28 0
34 30 0
35 31 0
36 32 0
38 33 0
39 34 0
41 35 0
42 36 0
43 37 0
44 38 0
45 39 0
46 40 0
2 21 60 1000 49
0 0 0
1 1 0
2 2 0
3 3 0
4 4 0
5 5 0
6 6 0
7 7 0
8 9 0
9 10 0
10 11 0
11 12 0
12 13 0
13 14 0
14 15 0
15 16 0
16 17 0
17 18 0
18 19 0
19 20 0
20 21 0
21 22 0
22 23 0
23 24 0
24 25 0
25 26 0
26 28 0
27 29 0
28 30 0
29 31 0
30 32 0
31 33 0
32 34 0
33 35 0
34 36 0
35 37 0
36 38 0
37 39 0
38 40 0
39 41 0
40 42 0
41 43 0
42 44 0
43 45 0
44 46 0
45 47 0
46 48 0
47 49 0
48 50 0
2 23 36 1000 41
0 0 0
1 2 0
2 3 0
3 4 0
4 5 0
5 6 0
6 8 0
7 9 0
8 12 0
9 13 0
10 14 0
11 15 0
12 16 0
13 18 0
14 19 0
15 21 0
16 23 0
17 24 0
18 25 0
19 27 0
20 28 0
21 29 0
22 30 0
23 31 0
24 32 0
25 33 0
26 34 0
27 35 0
28 37 0
29 38 0
30 39 0
31 42 0
32 43 0
33 44 0
34 45 0
35 46 0
36 47 0
37 48 0
38 49 0
39 50 0
40 51 0
2 23 24 1000 35
0 0 0
1 2 0
2 3 0
4 4 0
5 5 0
7 7 0
8 10 0
9 11 0
10 12 0
11 13 0
12 14 0
13 16 0
14 17 0
15 19 0
16 21 0
17 22 0
18 23 0
19 25 0
20 26 0
23 27 0
24 28 0
25 29 0
26 30 0
27 31 0
29 33 0
30 34 0
31 37 0
32 38 0
33 39 0
34 40 0
36 41 0
37 42 0
38 43 0
39 44 0
40 45 0
2 23 84 1000 41
0 0 0
1 2 0
2 3 0
3 4 0
4 5 0
5 6 0
6 8 0
7 9 0
8 12 0
9 13 0
10 14 0
11 15 0
12 16 0
13 18 0
14 19 0
15 21 0
16 23 0
17 24 0
18 25 0
19 27 0
20 28 0
21 29 0
22 30 0
23 31 0
24 32 0
25 33 0
26 34 0
27 35 0
28 37 0
29 38 0
30 39 0
31 42 0
32 43 0
33 44 0
34 45 0
35 46 0
36 47 0
37 48 0
38 49 0
39 50 0
40 51 0
2 25 28 1000 34
0 0 0
2 1 0
4 3 0
5 4 0
6 5 0
7 6 0
8 7 0
9 8 0
10 10 0
11 11 0
12 13 0
13 14 0
14 15 0
15 16 0
17 18 0
18 19 0
19 20 0
21 21 0
22 22 0
23 23 0
24 24 0
25 25 0
26 27 0
28 29 0
30 31 0
31 32 0
32 33 0
33 35 0
34 36 0
35 37 0
36 38 0
37 39 0
38 41 0
39 42 0
2 25 70 1000 34
0 0 0
1 1 0
2 2 0
3 4 0
4 5 0
5 6 0
6 7 0
7 8 0
8 9 0
9 10 0
10 12 0
13 14 0
14 15 0
15 16 0
16 17 0
17 19 0
19 20 0
20 21 0
21 22 0
22 23 0
23 24 0
24 25 0
25 27 0
27 29 0
28 31 0
29 32 0
31 34 0
32 35 0
33 37 0
34 38 0
35 39 0
36 40 0
37 41 0
39 43 0
2 27 96 1000 32
0 0 0
2 1 0
4 2 0
5 3 0
7 5 0
8 9 0
9 10 0
10 11 0
11 12 0
12 13 0
13 14 0
14 15 0
15 16 0
16 17 0
18 18 0
19 19 0
21 20 0
22 21 0
23 22 0
26 23 0
27 26 0
28 28 0
29 29 0
30 30 0
31 31 0
32 32 0
33 34 0
34 35 0
35 36 0
37 38 0
38 39 0
39 40 0
2 31 74 1000 52
0 0 0
1 1 0
2 2 0
3 3 0
4 4 0
5 5 0
6 6 0
7 7 0
8 8 0
9 9 0
10 10 0
11 11 0
12 12 0
13 13 0
14 14 0
15 15 0
16 16 0
17 17 0
18 18 0
19 19 0
20 20 0
21 21 0
22 22 0
23 23 0
24 24 0
25 25 0
26 26 0
27 27 0
28 28 0
29 29 0
30 30 0
31 31 0
32 32 0
33 33 0
34 34 0
35 35 0
36 36 0
37 37 0
38 38 0
39 39 0
40 40 0
41 41 0
42 42 0
43 43 0
44 44 0
45 45 0
46 46 0
47 47 0
48 48 0
49 49 0
50 50 0
51 51 0
2 63 78 1000 34
0 0 0
1 1 0
2 2 0
3 4 0
4 5 0
7 6 0
11 7 0
12 8 0
13 9 0
15 10 0
16 11 0
17 12 0
18 13 0
19 14 0
20 15 0
21 16 0
22 17 0
23 18 0
24 19 0
25 20 0
27 21 0
28 22 0
29 23 0
30 24 0
31 25 0
32 26 0
33 27 0
34 28 0
35 30 0
36 31 0
37 33 0
39 37 0
40 40 0
41 41 0
2 89 90 1000 37
0 0 0
1 1 0
2 2 0
3 3 0
4 4 0
5 5 0
6 6 0
7 7 0
8 8 0
9 9 0
10 10 0
11 11 0
12 12 0
13 14 0
15 15 0
16 16 0
17 17 0
18 18 0
19 19 0
20 21 0
21 22 0
22 24 0
24 27 0
25 30 0
26 31 0
27 34 0
28 35 0
29 36 0
30 37 0
31 40 0
33 41 0
34 42 0
35 43 0
36 44 0
37 45 0
38 46 0
39 47 0
